\ LP format - for model browsing. Use MPS format to capture full model detail.
Maximize
  x[0] + x[1] + x[2] + x[3] + x[4] + x[5] + x[6] + x[7] + x[8] + x[9]
   + x[10] + x[11] + x[12] + x[13] + x[14] + x[15] + x[16] + x[17] + x[18]
   + x[19]
Subject To
 edge[0,8]: x[0] + x[8] <= 1
 edge[0,14]: x[0] + x[14] <= 1
 edge[1,5]: x[1] + x[5] <= 1
 edge[1,10]: x[1] + x[10] <= 1
 edge[1,11]: x[1] + x[11] <= 1
 edge[1,12]: x[1] + x[12] <= 1
 edge[2,3]: x[2] + x[3] <= 1
 edge[2,6]: x[2] + x[6] <= 1
 edge[2,9]: x[2] + x[9] <= 1
 edge[2,15]: x[2] + x[15] <= 1
 edge[2,19]: x[2] + x[19] <= 1
 edge[3,5]: x[3] + x[5] <= 1
 edge[3,6]: x[3] + x[6] <= 1
 edge[3,14]: x[3] + x[14] <= 1
 edge[3,15]: x[3] + x[15] <= 1
 edge[3,17]: x[3] + x[17] <= 1
 edge[4,9]: x[4] + x[9] <= 1
 edge[4,13]: x[4] + x[13] <= 1
 edge[5,10]: x[5] + x[10] <= 1
 edge[5,18]: x[5] + x[18] <= 1
 edge[6,9]: x[6] + x[9] <= 1
 edge[6,10]: x[6] + x[10] <= 1
 edge[6,12]: x[6] + x[12] <= 1
 edge[6,13]: x[6] + x[13] <= 1
 edge[6,14]: x[6] + x[14] <= 1
 edge[7,16]: x[7] + x[16] <= 1
 edge[8,19]: x[8] + x[19] <= 1
 edge[9,16]: x[9] + x[16] <= 1
 edge[9,19]: x[9] + x[19] <= 1
 edge[10,12]: x[10] + x[12] <= 1
 edge[10,13]: x[10] + x[13] <= 1
 edge[10,15]: x[10] + x[15] <= 1
 edge[12,19]: x[12] + x[19] <= 1
 edge[13,15]: x[13] + x[15] <= 1
 edge[13,16]: x[13] + x[16] <= 1
 edge[0,8]: x[0] + x[8] <= 1
 edge[0,14]: x[0] + x[14] <= 1
 edge[1,5]: x[1] + x[5] <= 1
 edge[1,10]: x[1] + x[10] <= 1
 edge[1,11]: x[1] + x[11] <= 1
 edge[1,12]: x[1] + x[12] <= 1
 edge[2,3]: x[2] + x[3] <= 1
 edge[2,6]: x[2] + x[6] <= 1
 edge[2,9]: x[2] + x[9] <= 1
 edge[2,15]: x[2] + x[15] <= 1
 edge[2,19]: x[2] + x[19] <= 1
 edge[3,5]: x[3] + x[5] <= 1
 edge[3,6]: x[3] + x[6] <= 1
 edge[3,14]: x[3] + x[14] <= 1
 edge[3,15]: x[3] + x[15] <= 1
 edge[3,17]: x[3] + x[17] <= 1
 edge[4,9]: x[4] + x[9] <= 1
 edge[4,13]: x[4] + x[13] <= 1
 edge[5,10]: x[5] + x[10] <= 1
 edge[5,18]: x[5] + x[18] <= 1
 edge[6,9]: x[6] + x[9] <= 1
 edge[6,10]: x[6] + x[10] <= 1
 edge[6,12]: x[6] + x[12] <= 1
 edge[6,13]: x[6] + x[13] <= 1
 edge[6,14]: x[6] + x[14] <= 1
 edge[7,16]: x[7] + x[16] <= 1
 edge[8,19]: x[8] + x[19] <= 1
 edge[9,16]: x[9] + x[16] <= 1
 edge[9,19]: x[9] + x[19] <= 1
 edge[10,12]: x[10] + x[12] <= 1
 edge[10,13]: x[10] + x[13] <= 1
 edge[10,15]: x[10] + x[15] <= 1
 edge[12,19]: x[12] + x[19] <= 1
 edge[13,15]: x[13] + x[15] <= 1
 edge[13,16]: x[13] + x[16] <= 1
Bounds
Binaries
 x[0] x[1] x[2] x[3] x[4] x[5] x[6] x[7] x[8] x[9] x[10] x[11] x[12] x[13]
 x[14] x[15] x[16] x[17] x[18] x[19]
End
